p cnf 19 12
16 -18 5 -2 9 8 3 0
9 12 8 6 0
-6 -18 11 10 13 -3 -12 8 0
-5 -7 9 8 0
18 -19 3 -13 6 -10 2 -7 0
-6 -14 8 -18 -19 -10 -5 12 2 0
16 3 19 -6 12 0
11 -7 -8 -9 0
13 19 16 0
-8 16 3 7 14 -9 -17 13 0
-6 4 16 19 -2 11 14 17 -10 0
13 -12 -9 -16 -17 -19 0
